
%FILE DATA:	Soccer Computational Problem for MiniZinc Models	%
%AUTHOR:	Jack Wall	%
%CONTACT:  	116397063@umail.ucc.ie			%
%LAST UPDATE:	03/09/2020, 15:15:29						%
%DESCRIPTION: 	84 games played with 48 games left				%


n=12; %number of teams

%Games to play
games=[|8,10|11,9|1,5|2,9|9,7|2,6|9,12|1,10|9,8|2,7|4,12|2,3|12,8|6,3|1,12|6,7|11,1|2,5|8,1|11,2|9,1|8,4|12,2|6,10|3,9|12,1|12,4|4,10|7,11|2,12|5,1|11,8|1,3|2,10|12,9|6,4|10,4|1,9|7,8|1,2|6,9|1,6|10,6|11,12|3,7|10,2|5,11|10,5|];

%Initial points
iPoints=[9,15,27,19,13,25,20,23,19,12,21,26];

%POSITION CONSTRAINTS
% [|teamID, operator, position|...]
% operators index:
%  1 for =  operator
%  2 for >  operator
%  3 for >= operator
%  4 for <  operator
%  5 for <= operator
positionConstraints=[|12,1,1|9,4,3|6,3,3|];